true true true
presolving:
presolving (0 rounds: 0 fast, 0 medium, 0 exhaustive):
 0 deleted vars, 0 deleted constraints, 0 added constraints, 0 tightened bounds, 0 added holes, 0 changed sides, 0 changed coefficients
 0 implications, 0 cliques
presolved problem has 58 variables (58 bin, 0 int, 0 impl, 0 cont) and 51 constraints
     51 constraints of type <linear>
transformed objective value is always integral (scale: 1)
Presolving Time: 0.00

 time | node  | left  |LP iter|LP it/n|mem/heur|mdpt |vars |cons |rows |cuts |sepa|confs|strbr|  dualbound   | primalbound  |  gap   | compl. 
p 0.0s|     1 |     0 |     0 |     - |shiftand|   0 |  58 |  51 |  51 |   0 |  0 |   0 |   0 |      --      | 7.000000e+00 |    Inf | unknown
 time | node  | left  |LP iter|LP it/n|mem/heur|mdpt |vars |cons |rows |cuts |sepa|confs|strbr|  dualbound   | primalbound  |  gap   | compl. 
  0.1s|     1 |     0 |    38 |     - |  3939k |   0 |1040 |  51 |  51 |   0 |  0 |   0 |   0 | 1.000000e+00 | 7.000000e+00 | 600.00%| unknown
 time | node  | left  |LP iter|LP it/n|mem/heur|mdpt |vars |cons |rows |cuts |sepa|confs|strbr|  dualbound   | primalbound  |  gap   | compl. 
  748s|     1 |     0 |  1103 |     - |    18M |   0 |5188 |  51 |  51 |   0 |  0 |   0 |   0 | 6.000000e+00 | 7.000000e+00 |  16.67%| unknown
 time | node  | left  |LP iter|LP it/n|mem/heur|mdpt |vars |cons |rows |cuts |sepa|confs|strbr|  dualbound   | primalbound  |  gap   | compl. 
  749s|     1 |     2 |  4321 |     - |    19M |   0 |5188 |  51 |  51 |   0 |  1 |   0 |   0 | 6.000000e+00 | 7.000000e+00 |  16.67%| unknown
 time | node  | left  |LP iter|LP it/n|mem/heur|mdpt |vars |cons |rows |cuts |sepa|confs|strbr|  dualbound   | primalbound  |  gap   | compl. 
  749s|     2 |     3 |  4335 |  14.0 |    20M |   1 |5188 |  51 |  51 |   0 |  1 |   0 |   0 | 6.000000e+00 | 7.000000e+00 |  16.67%| unknown
 time | node  | left  |LP iter|LP it/n|mem/heur|mdpt |vars |cons |rows |cuts |sepa|confs|strbr|  dualbound   | primalbound  |  gap   | compl. 
  749s|     3 |     4 |  4365 |  22.0 |    20M |   2 |5188 |  51 |  51 |   0 |  1 |   0 |   0 | 6.000000e+00 | 7.000000e+00 |  16.67%| unknown
 time | node  | left  |LP iter|LP it/n|mem/heur|mdpt |vars |cons |rows |cuts |sepa|confs|strbr|  dualbound   | primalbound  |  gap   | compl. 
  749s|     4 |     5 |  4400 |  26.3 |    20M |   3 |5188 |  51 |  51 |   0 |  1 |   0 |   0 | 6.000000e+00 | 7.000000e+00 |  16.67%| unknown
 time | node  | left  |LP iter|LP it/n|mem/heur|mdpt |vars |cons |rows |cuts |sepa|confs|strbr|  dualbound   | primalbound  |  gap   | compl. 
  749s|     5 |     6 |  4447 |  31.5 |    21M |   3 |5188 |  51 |  51 |   0 |  1 |   0 |   0 | 6.000000e+00 | 7.000000e+00 |  16.67%| unknown
 time | node  | left  |LP iter|LP it/n|mem/heur|mdpt |vars |cons |rows |cuts |sepa|confs|strbr|  dualbound   | primalbound  |  gap   | compl. 
  750s|     6 |     7 |  4463 |  28.4 |    21M |   4 |5188 |  51 |  51 |   0 |  1 |   0 |   0 | 6.000000e+00 | 7.000000e+00 |  16.67%| unknown
 time | node  | left  |LP iter|LP it/n|mem/heur|mdpt |vars |cons |rows |cuts |sepa|confs|strbr|  dualbound   | primalbound  |  gap   | compl. 
  750s|     7 |     8 |  5317 | 166.0 |    21M |   4 |5188 |  51 |  51 |   0 |  1 |   0 |   0 | 6.000000e+00 | 7.000000e+00 |  16.67%| unknown
 time | node  | left  |LP iter|LP it/n|mem/heur|mdpt |vars |cons |rows |cuts |sepa|confs|strbr|  dualbound   | primalbound  |  gap   | compl. 
  751s|     8 |     9 |  5387 | 152.3 |    21M |   5 |5188 |  51 |  51 |   0 |  1 |   0 |   0 | 6.000000e+00 | 7.000000e+00 |  16.67%| unknown
 time | node  | left  |LP iter|LP it/n|mem/heur|mdpt |vars |cons |rows |cuts |sepa|confs|strbr|  dualbound   | primalbound  |  gap   | compl. 
  751s|     9 |    10 |  5422 | 137.6 |    22M |   6 |5188 |  51 |  51 |   0 |  1 |   0 |   0 | 6.000000e+00 | 7.000000e+00 |  16.67%| unknown
 time | node  | left  |LP iter|LP it/n|mem/heur|mdpt |vars |cons |rows |cuts |sepa|confs|strbr|  dualbound   | primalbound  |  gap   | compl. 
  751s|    10 |    11 |  5433 | 123.6 |    22M |   7 |5188 |  51 |  51 |   0 |  1 |   0 |   0 | 6.000000e+00 | 7.000000e+00 |  16.67%| unknown
 time | node  | left  |LP iter|LP it/n|mem/heur|mdpt |vars |cons |rows |cuts |sepa|confs|strbr|  dualbound   | primalbound  |  gap   | compl. 
  752s|    11 |    12 |  5488 | 116.7 |    22M |   8 |5188 |  51 |  51 |   0 |  1 |   0 |   0 | 6.000000e+00 | 7.000000e+00 |  16.67%| unknown
 time | node  | left  |LP iter|LP it/n|mem/heur|mdpt |vars |cons |rows |cuts |sepa|confs|strbr|  dualbound   | primalbound  |  gap   | compl. 
  752s|    12 |    13 |  5652 | 121.0 |    23M |   8 |5188 |  51 |  51 |   0 |  1 |   0 |   0 | 6.000000e+00 | 7.000000e+00 |  16.67%| unknown
 time | node  | left  |LP iter|LP it/n|mem/heur|mdpt |vars |cons |rows |cuts |sepa|confs|strbr|  dualbound   | primalbound  |  gap   | compl. 
  753s|    13 |    14 |  6278 | 163.1 |    23M |   8 |5188 |  51 |  51 |   0 |  1 |   0 |   0 | 6.000000e+00 | 7.000000e+00 |  16.67%| unknown
 time | node  | left  |LP iter|LP it/n|mem/heur|mdpt |vars |cons |rows |cuts |sepa|confs|strbr|  dualbound   | primalbound  |  gap   | compl. 
  753s|    14 |    15 |  6821 | 192.3 |    23M |   8 |5188 |  51 |  51 |   0 |  1 |   0 |   0 | 6.000000e+00 | 7.000000e+00 |  16.67%| unknown
 time | node  | left  |LP iter|LP it/n|mem/heur|mdpt |vars |cons |rows |cuts |sepa|confs|strbr|  dualbound   | primalbound  |  gap   | compl. 
  754s|    15 |    16 |  6990 | 190.6 |    23M |   9 |5188 |  51 |  51 |   0 |  1 |   0 |   0 | 6.000000e+00 | 7.000000e+00 |  16.67%| unknown
 time | node  | left  |LP iter|LP it/n|mem/heur|mdpt |vars |cons |rows |cuts |sepa|confs|strbr|  dualbound   | primalbound  |  gap   | compl. 
  754s|    16 |    17 |  7236 | 194.3 |    23M |   9 |5188 |  51 |  51 |   0 |  1 |   0 |   0 | 6.000000e+00 | 7.000000e+00 |  16.67%| unknown
 time | node  | left  |LP iter|LP it/n|mem/heur|mdpt |vars |cons |rows |cuts |sepa|confs|strbr|  dualbound   | primalbound  |  gap   | compl. 
  755s|    17 |    18 |  7612 | 205.7 |    23M |   9 |5188 |  51 |  51 |   0 |  1 |   0 |   0 | 6.000000e+00 | 7.000000e+00 |  16.67%| unknown
 time | node  | left  |LP iter|LP it/n|mem/heur|mdpt |vars |cons |rows |cuts |sepa|confs|strbr|  dualbound   | primalbound  |  gap   | compl. 
  755s|    18 |    19 |  7906 | 210.9 |    23M |   9 |5188 |  51 |  51 |   0 |  1 |   0 |   0 | 6.000000e+00 | 7.000000e+00 |  16.67%| unknown
 time | node  | left  |LP iter|LP it/n|mem/heur|mdpt |vars |cons |rows |cuts |sepa|confs|strbr|  dualbound   | primalbound  |  gap   | compl. 
  756s|    19 |    20 |  8286 | 220.3 |    23M |   9 |5188 |  51 |  51 |   0 |  1 |   0 |   0 | 6.000000e+00 | 7.000000e+00 |  16.67%| unknown
 time | node  | left  |LP iter|LP it/n|mem/heur|mdpt |vars |cons |rows |cuts |sepa|confs|strbr|  dualbound   | primalbound  |  gap   | compl. 
  756s|    20 |    21 |  8316 | 210.3 |    23M |   9 |5188 |  51 |  51 |   0 |  1 |   0 |   0 | 6.000000e+00 | 7.000000e+00 |  16.67%| unknown
 time | node  | left  |LP iter|LP it/n|mem/heur|mdpt |vars |cons |rows |cuts |sepa|confs|strbr|  dualbound   | primalbound  |  gap   | compl. 
  757s|    21 |    22 |  9086 | 238.2 |    24M |  10 |5188 |  51 |  51 |   0 |  1 |   0 |   0 | 6.000000e+00 | 7.000000e+00 |  16.67%| unknown
 time | node  | left  |LP iter|LP it/n|mem/heur|mdpt |vars |cons |rows |cuts |sepa|confs|strbr|  dualbound   | primalbound  |  gap   | compl. 
  757s|    22 |    23 |  9122 | 228.6 |    24M |  10 |5188 |  51 |  51 |   0 |  1 |   0 |   0 | 6.000000e+00 | 7.000000e+00 |  16.67%| unknown
 time | node  | left  |LP iter|LP it/n|mem/heur|mdpt |vars |cons |rows |cuts |sepa|confs|strbr|  dualbound   | primalbound  |  gap   | compl. 
  757s|    23 |    24 |  9136 | 218.9 |    24M |  10 |5188 |  51 |  51 |   0 |  1 |   0 |   0 | 6.000000e+00 | 7.000000e+00 |  16.67%| unknown
 time | node  | left  |LP iter|LP it/n|mem/heur|mdpt |vars |cons |rows |cuts |sepa|confs|strbr|  dualbound   | primalbound  |  gap   | compl. 
  758s|    24 |    25 |  9167 | 210.7 |    24M |  10 |5188 |  51 |  51 |   0 |  1 |   0 |   0 | 6.000000e+00 | 7.000000e+00 |  16.67%| unknown
 time | node  | left  |LP iter|LP it/n|mem/heur|mdpt |vars |cons |rows |cuts |sepa|confs|strbr|  dualbound   | primalbound  |  gap   | compl. 
  758s|    25 |    26 |  9402 | 211.7 |    24M |  10 |5188 |  51 |  51 |   0 |  1 |   0 |   0 | 6.000000e+00 | 7.000000e+00 |  16.67%| unknown
 time | node  | left  |LP iter|LP it/n|mem/heur|mdpt |vars |cons |rows |cuts |sepa|confs|strbr|  dualbound   | primalbound  |  gap   | compl. 
  759s|    26 |    27 |  9498 | 207.1 |    24M |  10 |5188 |  51 |  51 |   0 |  1 |   0 |   0 | 6.000000e+00 | 7.000000e+00 |  16.67%| unknown
 time | node  | left  |LP iter|LP it/n|mem/heur|mdpt |vars |cons |rows |cuts |sepa|confs|strbr|  dualbound   | primalbound  |  gap   | compl. 
  760s|    27 |    28 | 10105 | 222.5 |    24M |  10 |5928 |  51 |  51 |   0 |  1 |   0 |   0 | 6.000000e+00 | 7.000000e+00 |  16.67%| unknown
 time | node  | left  |LP iter|LP it/n|mem/heur|mdpt |vars |cons |rows |cuts |sepa|confs|strbr|  dualbound   | primalbound  |  gap   | compl. 
  760s|    28 |    29 | 10263 | 220.1 |    24M |  10 |5928 |  51 |  51 |   0 |  1 |   0 |   0 | 6.000000e+00 | 7.000000e+00 |  16.67%| unknown
 time | node  | left  |LP iter|LP it/n|mem/heur|mdpt |vars |cons |rows |cuts |sepa|confs|strbr|  dualbound   | primalbound  |  gap   | compl. 
  761s|    29 |    30 | 10351 | 215.4 |    24M |  10 |5928 |  51 |  51 |   0 |  1 |   0 |   0 | 6.000000e+00 | 7.000000e+00 |  16.67%| unknown
 time | node  | left  |LP iter|LP it/n|mem/heur|mdpt |vars |cons |rows |cuts |sepa|confs|strbr|  dualbound   | primalbound  |  gap   | compl. 
  761s|    30 |    31 | 10503 | 213.2 |    24M |  10 |5928 |  51 |  51 |   0 |  1 |   0 |   0 | 6.000000e+00 | 7.000000e+00 |  16.67%| unknown
 time | node  | left  |LP iter|LP it/n|mem/heur|mdpt |vars |cons |rows |cuts |sepa|confs|strbr|  dualbound   | primalbound  |  gap   | compl. 
  762s|    31 |    32 | 10659 | 211.3 |    24M |  10 |5928 |  51 |  51 |   0 |  1 |   0 |   0 | 6.000000e+00 | 7.000000e+00 |  16.67%| unknown
 time | node  | left  |LP iter|LP it/n|mem/heur|mdpt |vars |cons |rows |cuts |sepa|confs|strbr|  dualbound   | primalbound  |  gap   | compl. 
  762s|    32 |    33 | 10853 | 210.7 |    24M |  11 |5928 |  51 |  51 |   0 |  1 |   0 |   0 | 6.000000e+00 | 7.000000e+00 |  16.67%| unknown
 time | node  | left  |LP iter|LP it/n|mem/heur|mdpt |vars |cons |rows |cuts |sepa|confs|strbr|  dualbound   | primalbound  |  gap   | compl. 
  763s|    33 |    34 | 11113 | 212.2 |    24M |  12 |5928 |  51 |  51 |   0 |  1 |   0 |   0 | 6.000000e+00 | 7.000000e+00 |  16.67%| unknown
 time | node  | left  |LP iter|LP it/n|mem/heur|mdpt |vars |cons |rows |cuts |sepa|confs|strbr|  dualbound   | primalbound  |  gap   | compl. 
  763s|    34 |    35 | 11232 | 209.4 |    24M |  12 |5928 |  51 |  51 |   0 |  1 |   0 |   0 | 6.000000e+00 | 7.000000e+00 |  16.67%| unknown
 time | node  | left  |LP iter|LP it/n|mem/heur|mdpt |vars |cons |rows |cuts |sepa|confs|strbr|  dualbound   | primalbound  |  gap   | compl. 
  764s|    35 |    36 | 12033 | 226.8 |    24M |  12 |5928 |  51 |  51 |   0 |  1 |   0 |   0 | 6.000000e+00 | 7.000000e+00 |  16.67%| unknown
 time | node  | left  |LP iter|LP it/n|mem/heur|mdpt |vars |cons |rows |cuts |sepa|confs|strbr|  dualbound   | primalbound  |  gap   | compl. 
  764s|    36 |    37 | 12205 | 225.3 |    24M |  12 |5928 |  51 |  51 |   0 |  1 |   0 |   0 | 6.000000e+00 | 7.000000e+00 |  16.67%| unknown
 time | node  | left  |LP iter|LP it/n|mem/heur|mdpt |vars |cons |rows |cuts |sepa|confs|strbr|  dualbound   | primalbound  |  gap   | compl. 
  765s|    37 |    38 | 12223 | 219.5 |    24M |  12 |5928 |  51 |  51 |   0 |  1 |   0 |   0 | 6.000000e+00 | 7.000000e+00 |  16.67%| unknown
 time | node  | left  |LP iter|LP it/n|mem/heur|mdpt |vars |cons |rows |cuts |sepa|confs|strbr|  dualbound   | primalbound  |  gap   | compl. 
  765s|    38 |    39 | 12469 | 220.2 |    24M |  12 |5928 |  51 |  51 |   0 |  1 |   0 |   0 | 6.000000e+00 | 7.000000e+00 |  16.67%| unknown
 time | node  | left  |LP iter|LP it/n|mem/heur|mdpt |vars |cons |rows |cuts |sepa|confs|strbr|  dualbound   | primalbound  |  gap   | compl. 
  766s|    39 |    40 | 12479 | 214.7 |    25M |  12 |5928 |  51 |  51 |   0 |  1 |   0 |   0 | 6.000000e+00 | 7.000000e+00 |  16.67%| unknown
 time | node  | left  |LP iter|LP it/n|mem/heur|mdpt |vars |cons |rows |cuts |sepa|confs|strbr|  dualbound   | primalbound  |  gap   | compl. 
  766s|    40 |    41 | 12572 | 211.6 |    25M |  12 |5928 |  51 |  51 |   0 |  1 |   0 |   0 | 6.000000e+00 | 7.000000e+00 |  16.67%| unknown
 time | node  | left  |LP iter|LP it/n|mem/heur|mdpt |vars |cons |rows |cuts |sepa|confs|strbr|  dualbound   | primalbound  |  gap   | compl. 
  767s|    41 |    42 | 12597 | 206.9 |    25M |  12 |5928 |  51 |  51 |   0 |  1 |   0 |   0 | 6.000000e+00 | 7.000000e+00 |  16.67%| unknown
 time | node  | left  |LP iter|LP it/n|mem/heur|mdpt |vars |cons |rows |cuts |sepa|confs|strbr|  dualbound   | primalbound  |  gap   | compl. 
  768s|    42 |    43 | 12935 | 210.1 |    28M |  12 |6718 |  51 |  51 |   0 |  1 |   0 |   0 | 6.000000e+00 | 7.000000e+00 |  16.67%| unknown
 time | node  | left  |LP iter|LP it/n|mem/heur|mdpt |vars |cons |rows |cuts |sepa|confs|strbr|  dualbound   | primalbound  |  gap   | compl. 
  768s|    43 |    44 | 13052 | 207.9 |    28M |  12 |6718 |  51 |  51 |   0 |  1 |   0 |   0 | 6.000000e+00 | 7.000000e+00 |  16.67%| unknown
 time | node  | left  |LP iter|LP it/n|mem/heur|mdpt |vars |cons |rows |cuts |sepa|confs|strbr|  dualbound   | primalbound  |  gap   | compl. 
  769s|    44 |    45 | 13166 | 205.7 |    29M |  12 |6718 |  51 |  51 |   0 |  1 |   0 |   0 | 6.000000e+00 | 7.000000e+00 |  16.67%| unknown
 time | node  | left  |LP iter|LP it/n|mem/heur|mdpt |vars |cons |rows |cuts |sepa|confs|strbr|  dualbound   | primalbound  |  gap   | compl. 
  769s|    45 |    46 | 13189 | 201.5 |    29M |  12 |6718 |  51 |  51 |   0 |  1 |   0 |   0 | 6.000000e+00 | 7.000000e+00 |  16.67%| unknown
 time | node  | left  |LP iter|LP it/n|mem/heur|mdpt |vars |cons |rows |cuts |sepa|confs|strbr|  dualbound   | primalbound  |  gap   | compl. 
  770s|    46 |    47 | 13239 | 198.2 |    29M |  12 |6718 |  51 |  51 |   0 |  1 |   0 |   0 | 6.000000e+00 | 7.000000e+00 |  16.67%| unknown
 time | node  | left  |LP iter|LP it/n|mem/heur|mdpt |vars |cons |rows |cuts |sepa|confs|strbr|  dualbound   | primalbound  |  gap   | compl. 
  771s|    47 |    48 | 13251 | 194.1 |    29M |  12 |6718 |  51 |  51 |   0 |  1 |   0 |   0 | 6.000000e+00 | 7.000000e+00 |  16.67%| unknown
 time | node  | left  |LP iter|LP it/n|mem/heur|mdpt |vars |cons |rows |cuts |sepa|confs|strbr|  dualbound   | primalbound  |  gap   | compl. 
  772s|    48 |    49 | 13928 | 204.4 |    29M |  12 |6718 |  51 |  51 |   0 |  1 |   0 |   0 | 6.000000e+00 | 7.000000e+00 |  16.67%| unknown
 time | node  | left  |LP iter|LP it/n|mem/heur|mdpt |vars |cons |rows |cuts |sepa|confs|strbr|  dualbound   | primalbound  |  gap   | compl. 
  772s|    49 |    50 | 14069 | 203.1 |    29M |  12 |6718 |  51 |  51 |   0 |  1 |   0 |   0 | 6.000000e+00 | 7.000000e+00 |  16.67%| unknown
 time | node  | left  |LP iter|LP it/n|mem/heur|mdpt |vars |cons |rows |cuts |sepa|confs|strbr|  dualbound   | primalbound  |  gap   | compl. 
  773s|    50 |    51 | 14079 | 199.1 |    29M |  12 |6718 |  51 |  51 |   0 |  1 |   0 |   0 | 6.000000e+00 | 7.000000e+00 |  16.67%| unknown
 time | node  | left  |LP iter|LP it/n|mem/heur|mdpt |vars |cons |rows |cuts |sepa|confs|strbr|  dualbound   | primalbound  |  gap   | compl. 
  774s|    51 |    52 | 14100 | 195.6 |    29M |  13 |6718 |  51 |  51 |   0 |  1 |   0 |   0 | 6.000000e+00 | 7.000000e+00 |  16.67%| unknown
 time | node  | left  |LP iter|LP it/n|mem/heur|mdpt |vars |cons |rows |cuts |sepa|confs|strbr|  dualbound   | primalbound  |  gap   | compl. 
  775s|    52 |    53 | 14142 | 192.6 |    29M |  14 |6718 |  51 |  51 |   0 |  1 |   0 |   0 | 6.000000e+00 | 7.000000e+00 |  16.67%| unknown
 time | node  | left  |LP iter|LP it/n|mem/heur|mdpt |vars |cons |rows |cuts |sepa|confs|strbr|  dualbound   | primalbound  |  gap   | compl. 
  776s|    53 |    54 | 14219 | 190.3 |    29M |  15 |6718 |  51 |  51 |   0 |  1 |   0 |   0 | 6.000000e+00 | 7.000000e+00 |  16.67%| unknown
 time | node  | left  |LP iter|LP it/n|mem/heur|mdpt |vars |cons |rows |cuts |sepa|confs|strbr|  dualbound   | primalbound  |  gap   | compl. 
  777s|    54 |    55 | 14508 | 192.2 |    30M |  16 |7470 |  51 |  51 |   0 |  1 |   0 |   0 | 6.000000e+00 | 7.000000e+00 |  16.67%| unknown
 time | node  | left  |LP iter|LP it/n|mem/heur|mdpt |vars |cons |rows |cuts |sepa|confs|strbr|  dualbound   | primalbound  |  gap   | compl. 
  787s|    55 |    54 | 15304 | 203.4 |    33M |  17 |8530 |  51 |  51 |   0 |  0 |   0 |   0 | 6.000000e+00 | 7.000000e+00 |  16.67%| unknown
 time | node  | left  |LP iter|LP it/n|mem/heur|mdpt |vars |cons |rows |cuts |sepa|confs|strbr|  dualbound   | primalbound  |  gap   | compl. 
  788s|    56 |    55 | 15530 | 203.8 |    33M |  17 |8530 |  51 |  51 |   0 |  1 |   0 |   0 | 6.000000e+00 | 7.000000e+00 |  16.67%| unknown
 time | node  | left  |LP iter|LP it/n|mem/heur|mdpt |vars |cons |rows |cuts |sepa|confs|strbr|  dualbound   | primalbound  |  gap   | compl. 
  789s|    57 |    56 | 15731 | 203.8 |    35M |  17 |8530 |  51 |  51 |   0 |  1 |   0 |   0 | 6.000000e+00 | 7.000000e+00 |  16.67%| unknown
 time | node  | left  |LP iter|LP it/n|mem/heur|mdpt |vars |cons |rows |cuts |sepa|confs|strbr|  dualbound   | primalbound  |  gap   | compl. 
  790s|    58 |    57 | 15812 | 201.6 |    35M |  17 |8530 |  51 |  51 |   0 |  1 |   0 |   0 | 6.000000e+00 | 7.000000e+00 |  16.67%| unknown
 time | node  | left  |LP iter|LP it/n|mem/heur|mdpt |vars |cons |rows |cuts |sepa|confs|strbr|  dualbound   | primalbound  |  gap   | compl. 
  792s|    59 |    58 | 16075 | 202.7 |    35M |  17 |8530 |  51 |  51 |   0 |  1 |   0 |   0 | 6.000000e+00 | 7.000000e+00 |  16.67%| unknown
 time | node  | left  |LP iter|LP it/n|mem/heur|mdpt |vars |cons |rows |cuts |sepa|confs|strbr|  dualbound   | primalbound  |  gap   | compl. 
  793s|    60 |    59 | 16202 | 201.4 |    35M |  17 |8530 |  51 |  51 |   0 |  1 |   0 |   0 | 6.000000e+00 | 7.000000e+00 |  16.67%| unknown
 time | node  | left  |LP iter|LP it/n|mem/heur|mdpt |vars |cons |rows |cuts |sepa|confs|strbr|  dualbound   | primalbound  |  gap   | compl. 
  794s|    61 |    60 | 16220 | 198.3 |    35M |  17 |8530 |  51 |  51 |   0 |  1 |   0 |   0 | 6.000000e+00 | 7.000000e+00 |  16.67%| unknown
 time | node  | left  |LP iter|LP it/n|mem/heur|mdpt |vars |cons |rows |cuts |sepa|confs|strbr|  dualbound   | primalbound  |  gap   | compl. 
  795s|    62 |    61 | 16231 | 195.2 |    35M |  17 |8530 |  51 |  51 |   0 |  1 |   0 |   0 | 6.000000e+00 | 7.000000e+00 |  16.67%| unknown
 time | node  | left  |LP iter|LP it/n|mem/heur|mdpt |vars |cons |rows |cuts |sepa|confs|strbr|  dualbound   | primalbound  |  gap   | compl. 
  796s|    63 |    62 | 16378 | 194.5 |    35M |  17 |8530 |  51 |  51 |   0 |  1 |   0 |   0 | 6.000000e+00 | 7.000000e+00 |  16.67%| unknown
 time | node  | left  |LP iter|LP it/n|mem/heur|mdpt |vars |cons |rows |cuts |sepa|confs|strbr|  dualbound   | primalbound  |  gap   | compl. 
  797s|    64 |    63 | 16452 | 192.6 |    35M |  17 |8530 |  51 |  51 |   0 |  1 |   0 |   0 | 6.000000e+00 | 7.000000e+00 |  16.67%| unknown
 time | node  | left  |LP iter|LP it/n|mem/heur|mdpt |vars |cons |rows |cuts |sepa|confs|strbr|  dualbound   | primalbound  |  gap   | compl. 
  798s|    65 |    64 | 16487 | 190.1 |    36M |  17 |8530 |  51 |  51 |   0 |  1 |   0 |   0 | 6.000000e+00 | 7.000000e+00 |  16.67%| unknown
 time | node  | left  |LP iter|LP it/n|mem/heur|mdpt |vars |cons |rows |cuts |sepa|confs|strbr|  dualbound   | primalbound  |  gap   | compl. 
  800s|    66 |    65 | 16532 | 187.9 |    36M |  17 |8530 |  51 |  51 |   0 |  1 |   0 |   0 | 6.000000e+00 | 7.000000e+00 |  16.67%| unknown
 time | node  | left  |LP iter|LP it/n|mem/heur|mdpt |vars |cons |rows |cuts |sepa|confs|strbr|  dualbound   | primalbound  |  gap   | compl. 
  801s|    67 |    66 | 16578 | 185.7 |    36M |  17 |8530 |  51 |  51 |   0 |  1 |   0 |   0 | 6.000000e+00 | 7.000000e+00 |  16.67%| unknown
 time | node  | left  |LP iter|LP it/n|mem/heur|mdpt |vars |cons |rows |cuts |sepa|confs|strbr|  dualbound   | primalbound  |  gap   | compl. 
  802s|    68 |    67 | 16680 | 184.5 |    36M |  17 |8530 |  51 |  51 |   0 |  1 |   0 |   0 | 6.000000e+00 | 7.000000e+00 |  16.67%| unknown
 time | node  | left  |LP iter|LP it/n|mem/heur|mdpt |vars |cons |rows |cuts |sepa|confs|strbr|  dualbound   | primalbound  |  gap   | compl. 
r 803s|    69 |     0 | 16685 | 181.8 |simplero|  18 |8530 |  51 |  51 |   0 |  0 |   0 |   0 | 6.000000e+00 | 6.000000e+00 |   0.00%| 100.00%

SCIP Status        : problem is solved [optimal solution found]
Solving Time (sec) : 802.92
Solving Nodes      : 69
Primal Bound       : +6.00000000000000e+00 (6 solutions)
Dual Bound         : +6.00000000000000e+00
Gap                : 0.00 %
Running with parallel: True bidir: True symbreak: True
Number of Nodes:  51
48.92989875688837% holds
starting cheapest insertion heuristic
Heuristic without TSP improvement:  7
Heuristic without TSP improvement time:  0.1
Heuristic Sol:  7
Heuristic total time:  0.1
[[22, 46, 36, 37, 15, 27, 18], [40, 12, 28, 29, 17, 11, 30, 19, 24], [41, 3, 2, 38, 32, 10, 9, 4], [42, 20, 21, 5, 35, 13, 14, 43, 23], [50, 1, 33, 44, 8], [49, 26, 6, 31, 16], [48, 47, 25, 0, 7, 45, 39, 34]]
Instance path:  /home/htc/mghannam/SCRATCH/lccp-rust/data/t62_eil51.npcc
Timelimit:  7200
Heuristic without TSP improvement:  7
Heuristic without TSP improvement time:  0.1
Heuristic Sol:  7
Heuristic total time:  0.5
at 1 zero_duals: 44
at1, LP obj: 7.0 n_added_paths: 982
at 1 zero_duals: 27
at1, LP obj: 7.0 n_added_paths: 681
at 1 zero_duals: 13
at1, LP obj: 7.0 n_added_paths: 795
at 1 zero_duals: 21
at1, LP obj: 6.866559485530546 n_added_paths: 775
at 1 zero_duals: 4
at1, LP obj: 6.139914820740474 n_added_paths: 734
at 1 zero_duals: 3
at1, LP obj: 5.79569976333907 n_added_paths: 569
at 1 zero_duals: 1
at1, LP obj: 5.570131650671468 n_added_paths: 277
at 1 zero_duals: 1
at1, LP obj: 5.408863835034551 n_added_paths: 72
Switching to elementary pricing
at1, LP obj: 5.386044891181878 n_added_paths: 156
updated lowerbound from 1.0 to 5
Switching to elementary pricing
at1, LP obj: 5.286786002563981 n_added_paths: 85
Switching to elementary pricing
at1, LP obj: 5.273266711340306 n_added_paths: 4
updated lowerbound from 5.0 to 6
Gap too small = 0, stopping pricing with lb = 6
Gap too small = 0, stopping pricing with lb = 6
Gap too small = 0, stopping pricing with lb = 6
Gap too small = 0, stopping pricing with lb = 6
Gap too small = 0, stopping pricing with lb = 6
Gap too small = 0, stopping pricing with lb = 6
Gap too small = 0, stopping pricing with lb = 6
Gap too small = 0, stopping pricing with lb = 6
Gap too small = 0, stopping pricing with lb = 6
Gap too small = 0, stopping pricing with lb = 6
Gap too small = 0, stopping pricing with lb = 6
Gap too small = 0, stopping pricing with lb = 6
Gap too small = 0, stopping pricing with lb = 6
Gap too small = 0, stopping pricing with lb = 6
Gap too small = 0, stopping pricing with lb = 6
Gap too small = 0, stopping pricing with lb = 6
Gap too small = 0, stopping pricing with lb = 6
Gap too small = 0, stopping pricing with lb = 6
Gap too small = 0, stopping pricing with lb = 6
Gap too small = 0, stopping pricing with lb = 6
Gap too small = 0, stopping pricing with lb = 6
Gap too small = 0, stopping pricing with lb = 6
Gap too small = 0, stopping pricing with lb = 6
Gap too small = 0, stopping pricing with lb = 6
Gap too small = 0, stopping pricing with lb = 6
Gap too small = 0, stopping pricing with lb = 6
at 52 zero_duals: 11
at52, LP obj: 6.0214783452412455 n_added_paths: 740
Gap too small = 0, stopping pricing with lb = 6
Gap too small = 0, stopping pricing with lb = 6
Gap too small = 0, stopping pricing with lb = 6
Gap too small = 0, stopping pricing with lb = 6
Gap too small = 0, stopping pricing with lb = 6
Gap too small = 0, stopping pricing with lb = 6
Gap too small = 0, stopping pricing with lb = 6
Gap too small = 0, stopping pricing with lb = 6
Gap too small = 0, stopping pricing with lb = 6
Gap too small = 0, stopping pricing with lb = 6
Gap too small = 0, stopping pricing with lb = 6
Gap too small = 0, stopping pricing with lb = 6
Gap too small = 0, stopping pricing with lb = 6
Gap too small = 0, stopping pricing with lb = 6
Gap too small = 0, stopping pricing with lb = 6
at 77 zero_duals: 11
at77, LP obj: 6.256751044944347 n_added_paths: 790
Gap too small = 0, stopping pricing with lb = 6
Gap too small = 0, stopping pricing with lb = 6
Gap too small = 0, stopping pricing with lb = 6
Gap too small = 0, stopping pricing with lb = 6
Gap too small = 0, stopping pricing with lb = 6
Gap too small = 0, stopping pricing with lb = 6
Gap too small = 0, stopping pricing with lb = 6
Gap too small = 0, stopping pricing with lb = 6
Gap too small = 0, stopping pricing with lb = 6
Gap too small = 0, stopping pricing with lb = 6
Gap too small = 0, stopping pricing with lb = 6
Gap too small = 0, stopping pricing with lb = 6
at 106 zero_duals: 12
at106, LP obj: 6.271768840296758 n_added_paths: 752
Gap too small = 0, stopping pricing with lb = 6
at 108 zero_duals: 47
Switching to elementary pricing
at108, LP obj: 1e+20 n_added_paths: 400
updated lowerbound from 6.0 to 100000000000000000000
at 108 zero_duals: 12
Switching to elementary pricing
at108, LP obj: 6.585045193097782 n_added_paths: 558
at 108 zero_duals: 4
at108, LP obj: 6.243617578797633 n_added_paths: 39
at 108 zero_duals: 7
at108, LP obj: 6.188743994509266 n_added_paths: 17
at 108 zero_duals: 6
Switching to elementary pricing
at108, LP obj: 6.1803278688524586 n_added_paths: 38
at 108 zero_duals: 6
Switching to elementary pricing
at108, LP obj: 6.160550458715596 n_added_paths: 8
updated lowerbound from 6.0 to 7
Gap too small = 0, stopping pricing with lb = 6
Gap too small = 0, stopping pricing with lb = 6
Gap too small = 0, stopping pricing with lb = 6
Gap too small = 0, stopping pricing with lb = 6
Gap too small = 0, stopping pricing with lb = 6
Gap too small = 0, stopping pricing with lb = 6
Gap too small = 0, stopping pricing with lb = 6
Gap too small = 0, stopping pricing with lb = 6
Gap too small = 0, stopping pricing with lb = 6
Gap too small = 0, stopping pricing with lb = 6
Gap too small = 0, stopping pricing with lb = 6
Gap too small = 0, stopping pricing with lb = 6
Gap too small = 0, stopping pricing with lb = 6
Gap too small = 0, stopping pricing with lb = 6
Best solution found:
[48, 34, 45, 47, 40, 24, 12, 28, 48] 1.0 1.0
checking cycle [48, 34, 45, 47, 40, 24, 12, 28, 48]
[48, 34, 45, 47, 40, 24, 12, 28, 48] 87 76
[50, 1, 16, 49, 31, 26, 6, 8, 50] 1.0 1.0
checking cycle [50, 1, 16, 49, 31, 26, 6, 8, 50]
[50, 1, 16, 49, 31, 26, 6, 8, 50] 74 74
[30, 11, 3, 17, 29, 2, 0, 25, 19, 30] 1.0 1.0
checking cycle [30, 11, 3, 17, 29, 2, 0, 25, 19, 30]
[30, 11, 3, 17, 29, 2, 0, 25, 19, 30] 126 123
[44, 14, 13, 42, 23, 43, 33, 44] 1.0 1.0
checking cycle [44, 14, 13, 42, 23, 43, 33, 44]
[44, 14, 13, 42, 23, 43, 33, 44] 93 83
[46, 36, 41, 4, 37, 15, 22, 18, 27, 46] 1.0 1.0
checking cycle [46, 36, 41, 4, 37, 15, 22, 18, 27, 46]
[46, 36, 41, 4, 37, 15, 22, 18, 27, 46] 89 89
[38, 9, 10, 20, 21, 35, 5, 7, 39, 32, 38] 1.0 1.0
checking cycle [38, 9, 10, 20, 21, 35, 5, 7, 39, 32, 38]
[38, 9, 10, 20, 21, 35, 5, 7, 39, 32, 38] 99 99
